119
103
42
230
52
29
36
192
83
55
82
48
71
54
24
138
35
243
187
64
33
65
230
202
28
474
34
0
19
125
951
15
24
583
277
104
72
51
51
103
97
20
53
34
54
449
176
78
118
385
19
98
27
169
174
53
305
0
15
16
96
71
30
97
183
67
182
135
121
92
68
144
0
54
377
415
26
180
17
49
154
48
20
1317
171
227
141
61
258
54
20
212
138
306
173
0
307
60
99
237
